(declare-sort Loc 0)
(declare-const l0 Loc)
(declare-const l1 Loc)
(declare-const l2 Loc)
(declare-const l3 Loc)
(declare-const l4 Loc)
(declare-const l5 Loc)
(declare-const l6 Loc)
(declare-const l7 Loc)
(declare-const l8 Loc)
(declare-const l9 Loc)
(declare-const l10 Loc)
(declare-const l11 Loc)
(declare-const l12 Loc)
(declare-const l13 Loc)
(declare-const l14 Loc)
(declare-const l15 Loc)
(declare-const l16 Loc)
(declare-const l17 Loc)
(declare-const l18 Loc)
(declare-const l19 Loc)
(declare-const l20 Loc)
(declare-const l21 Loc)
(declare-const l22 Loc)
(assert (distinct l0 l1 l2 l3 l4 l5 l6 l7 l8 l9 l10 l11 l12 l13 l14 l15 l16 l17 l18 l19 l20 l21 l22))

(define-fun cfg_init ( (pc Loc) (src Loc) (rel Bool) ) Bool
  (and (= pc src) rel))

(define-fun cfg_trans2 ( (pc Loc) (src Loc)
                         (pc1 Loc) (dst Loc)
                         (rel Bool) ) Bool
  (and (= pc src) (= pc1 dst) rel))

(define-fun cfg_trans3 ( (pc Loc) (exit Loc)
                         (pc1 Loc) (call Loc)
                         (pc2 Loc) (return Loc)
                         (rel Bool) ) Bool
  (and (= pc exit) (= pc1 call) (= pc2 return) rel))

(define-fun init_main ( (pc^0 Loc) (A^0 Int) (NBuffers^0 Int) (NLocBuffer^0 Int) (R^0 Int) (a1010^0 Int) (a1414^0 Int) (a66^0 Int) (b1111^0 Int) (b77^0 Int) (bufHdr___01515^0 Int) (bufHdr_cntxDirty^0 Int) (bufHdr_flags^0 Int) (bufHdr_tag_blockNum^0 Int) (bufHdr_tag_rnode^0 Int) (bufHdr_tag_rnode_relNode^0 Int) (firstDelBlock^0 Int) (i^0 Int) (istemp^0 Int) (ret_RelFileNodeEquals1313^0 Int) (ret_RelFileNodeEquals99^0 Int) (rnode^0 Int) (tmp1212^0 Int) (tmp1^0 Int) (tmp88^0 Int) (tmp___03^0 Int) (tmp___14^0 Int) ) Bool
  (cfg_init pc^0 l22 true))

(define-fun next_main (
                 (pc^0 Loc) (A^0 Int) (NBuffers^0 Int) (NLocBuffer^0 Int) (R^0 Int) (a1010^0 Int) (a1414^0 Int) (a66^0 Int) (b1111^0 Int) (b77^0 Int) (bufHdr___01515^0 Int) (bufHdr_cntxDirty^0 Int) (bufHdr_flags^0 Int) (bufHdr_tag_blockNum^0 Int) (bufHdr_tag_rnode^0 Int) (bufHdr_tag_rnode_relNode^0 Int) (firstDelBlock^0 Int) (i^0 Int) (istemp^0 Int) (ret_RelFileNodeEquals1313^0 Int) (ret_RelFileNodeEquals99^0 Int) (rnode^0 Int) (tmp1212^0 Int) (tmp1^0 Int) (tmp88^0 Int) (tmp___03^0 Int) (tmp___14^0 Int)
                 (pc^post Loc) (A^post Int) (NBuffers^post Int) (NLocBuffer^post Int) (R^post Int) (a1010^post Int) (a1414^post Int) (a66^post Int) (b1111^post Int) (b77^post Int) (bufHdr___01515^post Int) (bufHdr_cntxDirty^post Int) (bufHdr_flags^post Int) (bufHdr_tag_blockNum^post Int) (bufHdr_tag_rnode^post Int) (bufHdr_tag_rnode_relNode^post Int) (firstDelBlock^post Int) (i^post Int) (istemp^post Int) (ret_RelFileNodeEquals1313^post Int) (ret_RelFileNodeEquals99^post Int) (rnode^post Int) (tmp1212^post Int) (tmp1^post Int) (tmp88^post Int) (tmp___03^post Int) (tmp___14^post Int)
             ) Bool
  (or
    (cfg_trans2 pc^0 l0 pc^post l1 (and (and (and (and (and (and (and (and (and (and (and (and (and (and (and (and (and (and (and (and (and (and (and (and (and (= A^0 A^post) (= NBuffers^0 NBuffers^post)) (= NLocBuffer^0 NLocBuffer^post)) (= R^0 R^post)) (= a1010^0 a1010^post)) (= a1414^0 a1414^post)) (= a66^0 a66^post)) (= b1111^0 b1111^post)) (= b77^0 b77^post)) (= bufHdr___01515^0 bufHdr___01515^post)) (= bufHdr_cntxDirty^0 bufHdr_cntxDirty^post)) (= bufHdr_flags^0 bufHdr_flags^post)) (= bufHdr_tag_blockNum^0 bufHdr_tag_blockNum^post)) (= bufHdr_tag_rnode^0 bufHdr_tag_rnode^post)) (= bufHdr_tag_rnode_relNode^0 bufHdr_tag_rnode_relNode^post)) (= firstDelBlock^0 firstDelBlock^post)) (= i^0 i^post)) (= istemp^0 istemp^post)) (= ret_RelFileNodeEquals1313^0 ret_RelFileNodeEquals1313^post)) (= ret_RelFileNodeEquals99^0 ret_RelFileNodeEquals99^post)) (= rnode^0 rnode^post)) (= tmp1^0 tmp1^post)) (= tmp1212^0 tmp1212^post)) (= tmp88^0 tmp88^post)) (= tmp___03^0 tmp___03^post)) (= tmp___14^0 tmp___14^post)))
    (cfg_trans2 pc^0 l2 pc^post l3 (and (and (and (and (and (and (and (and (and (and (and (and (and (and (and (and (and (and (and (and (and (and (and (and (and (= A^0 A^post) (= NBuffers^0 NBuffers^post)) (= NLocBuffer^0 NLocBuffer^post)) (= R^0 R^post)) (= a1010^0 a1010^post)) (= a1414^0 a1414^post)) (= a66^0 a66^post)) (= b1111^0 b1111^post)) (= b77^0 b77^post)) (= bufHdr___01515^0 bufHdr___01515^post)) (= bufHdr_cntxDirty^0 bufHdr_cntxDirty^post)) (= bufHdr_flags^0 bufHdr_flags^post)) (= bufHdr_tag_blockNum^0 bufHdr_tag_blockNum^post)) (= bufHdr_tag_rnode^0 bufHdr_tag_rnode^post)) (= bufHdr_tag_rnode_relNode^0 bufHdr_tag_rnode_relNode^post)) (= firstDelBlock^0 firstDelBlock^post)) (= i^0 i^post)) (= istemp^0 istemp^post)) (= ret_RelFileNodeEquals1313^0 ret_RelFileNodeEquals1313^post)) (= ret_RelFileNodeEquals99^0 ret_RelFileNodeEquals99^post)) (= rnode^0 rnode^post)) (= tmp1^0 tmp1^post)) (= tmp1212^0 tmp1212^post)) (= tmp88^0 tmp88^post)) (= tmp___03^0 tmp___03^post)) (= tmp___14^0 tmp___14^post)))
    (cfg_trans2 pc^0 l4 pc^post l5 (and (and (and (and (and (and (and (and (and (and (and (and (and (and (and (and (and (and (and (and (and (and (and (and (and (= i^post (+ 1 i^0)) (= A^0 A^post)) (= NBuffers^0 NBuffers^post)) (= NLocBuffer^0 NLocBuffer^post)) (= R^0 R^post)) (= a1010^0 a1010^post)) (= a1414^0 a1414^post)) (= a66^0 a66^post)) (= b1111^0 b1111^post)) (= b77^0 b77^post)) (= bufHdr___01515^0 bufHdr___01515^post)) (= bufHdr_cntxDirty^0 bufHdr_cntxDirty^post)) (= bufHdr_flags^0 bufHdr_flags^post)) (= bufHdr_tag_blockNum^0 bufHdr_tag_blockNum^post)) (= bufHdr_tag_rnode^0 bufHdr_tag_rnode^post)) (= bufHdr_tag_rnode_relNode^0 bufHdr_tag_rnode_relNode^post)) (= firstDelBlock^0 firstDelBlock^post)) (= istemp^0 istemp^post)) (= ret_RelFileNodeEquals1313^0 ret_RelFileNodeEquals1313^post)) (= ret_RelFileNodeEquals99^0 ret_RelFileNodeEquals99^post)) (= rnode^0 rnode^post)) (= tmp1^0 tmp1^post)) (= tmp1212^0 tmp1212^post)) (= tmp88^0 tmp88^post)) (= tmp___03^0 tmp___03^post)) (= tmp___14^0 tmp___14^post)))
    (cfg_trans2 pc^0 l6 pc^post l7 (and (and (and (and (and (and (and (and (and (and (and (and (and (and (and (and (and (and (and (and (and (and (and (and (and (= A^0 A^post) (= NBuffers^0 NBuffers^post)) (= NLocBuffer^0 NLocBuffer^post)) (= R^0 R^post)) (= a1010^0 a1010^post)) (= a1414^0 a1414^post)) (= a66^0 a66^post)) (= b1111^0 b1111^post)) (= b77^0 b77^post)) (= bufHdr___01515^0 bufHdr___01515^post)) (= bufHdr_cntxDirty^0 bufHdr_cntxDirty^post)) (= bufHdr_flags^0 bufHdr_flags^post)) (= bufHdr_tag_blockNum^0 bufHdr_tag_blockNum^post)) (= bufHdr_tag_rnode^0 bufHdr_tag_rnode^post)) (= bufHdr_tag_rnode_relNode^0 bufHdr_tag_rnode_relNode^post)) (= firstDelBlock^0 firstDelBlock^post)) (= i^0 i^post)) (= istemp^0 istemp^post)) (= ret_RelFileNodeEquals1313^0 ret_RelFileNodeEquals1313^post)) (= ret_RelFileNodeEquals99^0 ret_RelFileNodeEquals99^post)) (= rnode^0 rnode^post)) (= tmp1^0 tmp1^post)) (= tmp1212^0 tmp1212^post)) (= tmp88^0 tmp88^post)) (= tmp___03^0 tmp___03^post)) (= tmp___14^0 tmp___14^post)))
    (cfg_trans2 pc^0 l7 pc^post l6 (and (and (and (and (and (and (and (and (and (and (and (and (and (and (and (and (and (and (and (and (and (and (and (and (and (= A^0 A^post) (= NBuffers^0 NBuffers^post)) (= NLocBuffer^0 NLocBuffer^post)) (= R^0 R^post)) (= a1010^0 a1010^post)) (= a1414^0 a1414^post)) (= a66^0 a66^post)) (= b1111^0 b1111^post)) (= b77^0 b77^post)) (= bufHdr___01515^0 bufHdr___01515^post)) (= bufHdr_cntxDirty^0 bufHdr_cntxDirty^post)) (= bufHdr_flags^0 bufHdr_flags^post)) (= bufHdr_tag_blockNum^0 bufHdr_tag_blockNum^post)) (= bufHdr_tag_rnode^0 bufHdr_tag_rnode^post)) (= bufHdr_tag_rnode_relNode^0 bufHdr_tag_rnode_relNode^post)) (= firstDelBlock^0 firstDelBlock^post)) (= i^0 i^post)) (= istemp^0 istemp^post)) (= ret_RelFileNodeEquals1313^0 ret_RelFileNodeEquals1313^post)) (= ret_RelFileNodeEquals99^0 ret_RelFileNodeEquals99^post)) (= rnode^0 rnode^post)) (= tmp1^0 tmp1^post)) (= tmp1212^0 tmp1212^post)) (= tmp88^0 tmp88^post)) (= tmp___03^0 tmp___03^post)) (= tmp___14^0 tmp___14^post)))
    (cfg_trans2 pc^0 l8 pc^post l4 (and (and (and (and (and (and (and (and (and (and (and (and (and (and (and (and (and (and (and (and (and (and (and (and (and (= bufHdr_flags^post bufHdr_flags^post) (= bufHdr_cntxDirty^post 0)) (= bufHdr___01515^post bufHdr___01515^post)) (= A^0 A^post)) (= NBuffers^0 NBuffers^post)) (= NLocBuffer^0 NLocBuffer^post)) (= R^0 R^post)) (= a1010^0 a1010^post)) (= a1414^0 a1414^post)) (= a66^0 a66^post)) (= b1111^0 b1111^post)) (= b77^0 b77^post)) (= bufHdr_tag_blockNum^0 bufHdr_tag_blockNum^post)) (= bufHdr_tag_rnode^0 bufHdr_tag_rnode^post)) (= bufHdr_tag_rnode_relNode^0 bufHdr_tag_rnode_relNode^post)) (= firstDelBlock^0 firstDelBlock^post)) (= i^0 i^post)) (= istemp^0 istemp^post)) (= ret_RelFileNodeEquals1313^0 ret_RelFileNodeEquals1313^post)) (= ret_RelFileNodeEquals99^0 ret_RelFileNodeEquals99^post)) (= rnode^0 rnode^post)) (= tmp1^0 tmp1^post)) (= tmp1212^0 tmp1212^post)) (= tmp88^0 tmp88^post)) (= tmp___03^0 tmp___03^post)) (= tmp___14^0 tmp___14^post)))
    (cfg_trans2 pc^0 l8 pc^post l9 (and (and (and (and (and (and (and (and (and (and (and (and (and (and (and (and (and (and (and (and (and (and (and (and (and (= a1414^post a1414^post) (= A^0 A^post)) (= NBuffers^0 NBuffers^post)) (= NLocBuffer^0 NLocBuffer^post)) (= R^0 R^post)) (= a1010^0 a1010^post)) (= a66^0 a66^post)) (= b1111^0 b1111^post)) (= b77^0 b77^post)) (= bufHdr___01515^0 bufHdr___01515^post)) (= bufHdr_cntxDirty^0 bufHdr_cntxDirty^post)) (= bufHdr_flags^0 bufHdr_flags^post)) (= bufHdr_tag_blockNum^0 bufHdr_tag_blockNum^post)) (= bufHdr_tag_rnode^0 bufHdr_tag_rnode^post)) (= bufHdr_tag_rnode_relNode^0 bufHdr_tag_rnode_relNode^post)) (= firstDelBlock^0 firstDelBlock^post)) (= i^0 i^post)) (= istemp^0 istemp^post)) (= ret_RelFileNodeEquals1313^0 ret_RelFileNodeEquals1313^post)) (= ret_RelFileNodeEquals99^0 ret_RelFileNodeEquals99^post)) (= rnode^0 rnode^post)) (= tmp1^0 tmp1^post)) (= tmp1212^0 tmp1212^post)) (= tmp88^0 tmp88^post)) (= tmp___03^0 tmp___03^post)) (= tmp___14^0 tmp___14^post)))
    (cfg_trans2 pc^0 l10 pc^post l4 (and (and (and (and (and (and (and (and (and (and (and (and (and (and (and (and (and (and (and (and (and (and (and (and (and (and (<= (+ 1 bufHdr_tag_blockNum^0) (+ 0 firstDelBlock^0)) (= A^0 A^post)) (= NBuffers^0 NBuffers^post)) (= NLocBuffer^0 NLocBuffer^post)) (= R^0 R^post)) (= a1010^0 a1010^post)) (= a1414^0 a1414^post)) (= a66^0 a66^post)) (= b1111^0 b1111^post)) (= b77^0 b77^post)) (= bufHdr___01515^0 bufHdr___01515^post)) (= bufHdr_cntxDirty^0 bufHdr_cntxDirty^post)) (= bufHdr_flags^0 bufHdr_flags^post)) (= bufHdr_tag_blockNum^0 bufHdr_tag_blockNum^post)) (= bufHdr_tag_rnode^0 bufHdr_tag_rnode^post)) (= bufHdr_tag_rnode_relNode^0 bufHdr_tag_rnode_relNode^post)) (= firstDelBlock^0 firstDelBlock^post)) (= i^0 i^post)) (= istemp^0 istemp^post)) (= ret_RelFileNodeEquals1313^0 ret_RelFileNodeEquals1313^post)) (= ret_RelFileNodeEquals99^0 ret_RelFileNodeEquals99^post)) (= rnode^0 rnode^post)) (= tmp1^0 tmp1^post)) (= tmp1212^0 tmp1212^post)) (= tmp88^0 tmp88^post)) (= tmp___03^0 tmp___03^post)) (= tmp___14^0 tmp___14^post)))
    (cfg_trans2 pc^0 l10 pc^post l8 (and (and (and (and (and (and (and (and (and (and (and (and (and (and (and (and (and (and (and (and (and (and (and (and (and (and (<= (+ 0 firstDelBlock^0) (+ 0 bufHdr_tag_blockNum^0)) (= A^0 A^post)) (= NBuffers^0 NBuffers^post)) (= NLocBuffer^0 NLocBuffer^post)) (= R^0 R^post)) (= a1010^0 a1010^post)) (= a1414^0 a1414^post)) (= a66^0 a66^post)) (= b1111^0 b1111^post)) (= b77^0 b77^post)) (= bufHdr___01515^0 bufHdr___01515^post)) (= bufHdr_cntxDirty^0 bufHdr_cntxDirty^post)) (= bufHdr_flags^0 bufHdr_flags^post)) (= bufHdr_tag_blockNum^0 bufHdr_tag_blockNum^post)) (= bufHdr_tag_rnode^0 bufHdr_tag_rnode^post)) (= bufHdr_tag_rnode_relNode^0 bufHdr_tag_rnode_relNode^post)) (= firstDelBlock^0 firstDelBlock^post)) (= i^0 i^post)) (= istemp^0 istemp^post)) (= ret_RelFileNodeEquals1313^0 ret_RelFileNodeEquals1313^post)) (= ret_RelFileNodeEquals99^0 ret_RelFileNodeEquals99^post)) (= rnode^0 rnode^post)) (= tmp1^0 tmp1^post)) (= tmp1212^0 tmp1212^post)) (= tmp88^0 tmp88^post)) (= tmp___03^0 tmp___03^post)) (= tmp___14^0 tmp___14^post)))
    (cfg_trans2 pc^0 l11 pc^post l4 (and (and (and (and (and (and (and (and (and (and (and (and (and (and (and (and (and (and (and (and (and (and (and (and (and (and (and (<= (+ 0 tmp___14^0) 0) (<= 0 (+ 0 tmp___14^0))) (= A^0 A^post)) (= NBuffers^0 NBuffers^post)) (= NLocBuffer^0 NLocBuffer^post)) (= R^0 R^post)) (= a1010^0 a1010^post)) (= a1414^0 a1414^post)) (= a66^0 a66^post)) (= b1111^0 b1111^post)) (= b77^0 b77^post)) (= bufHdr___01515^0 bufHdr___01515^post)) (= bufHdr_cntxDirty^0 bufHdr_cntxDirty^post)) (= bufHdr_flags^0 bufHdr_flags^post)) (= bufHdr_tag_blockNum^0 bufHdr_tag_blockNum^post)) (= bufHdr_tag_rnode^0 bufHdr_tag_rnode^post)) (= bufHdr_tag_rnode_relNode^0 bufHdr_tag_rnode_relNode^post)) (= firstDelBlock^0 firstDelBlock^post)) (= i^0 i^post)) (= istemp^0 istemp^post)) (= ret_RelFileNodeEquals1313^0 ret_RelFileNodeEquals1313^post)) (= ret_RelFileNodeEquals99^0 ret_RelFileNodeEquals99^post)) (= rnode^0 rnode^post)) (= tmp1^0 tmp1^post)) (= tmp1212^0 tmp1212^post)) (= tmp88^0 tmp88^post)) (= tmp___03^0 tmp___03^post)) (= tmp___14^0 tmp___14^post)))
    (cfg_trans2 pc^0 l11 pc^post l10 (and (and (and (and (and (and (and (and (and (and (and (and (and (and (and (and (and (and (and (and (and (and (and (and (and (and (<= 1 (+ 0 tmp___14^0)) (= A^0 A^post)) (= NBuffers^0 NBuffers^post)) (= NLocBuffer^0 NLocBuffer^post)) (= R^0 R^post)) (= a1010^0 a1010^post)) (= a1414^0 a1414^post)) (= a66^0 a66^post)) (= b1111^0 b1111^post)) (= b77^0 b77^post)) (= bufHdr___01515^0 bufHdr___01515^post)) (= bufHdr_cntxDirty^0 bufHdr_cntxDirty^post)) (= bufHdr_flags^0 bufHdr_flags^post)) (= bufHdr_tag_blockNum^0 bufHdr_tag_blockNum^post)) (= bufHdr_tag_rnode^0 bufHdr_tag_rnode^post)) (= bufHdr_tag_rnode_relNode^0 bufHdr_tag_rnode_relNode^post)) (= firstDelBlock^0 firstDelBlock^post)) (= i^0 i^post)) (= istemp^0 istemp^post)) (= ret_RelFileNodeEquals1313^0 ret_RelFileNodeEquals1313^post)) (= ret_RelFileNodeEquals99^0 ret_RelFileNodeEquals99^post)) (= rnode^0 rnode^post)) (= tmp1^0 tmp1^post)) (= tmp1212^0 tmp1212^post)) (= tmp88^0 tmp88^post)) (= tmp___03^0 tmp___03^post)) (= tmp___14^0 tmp___14^post)))
    (cfg_trans2 pc^0 l11 pc^post l10 (and (and (and (and (and (and (and (and (and (and (and (and (and (and (and (and (and (and (and (and (and (and (and (and (and (and (<= (+ 1 tmp___14^0) 0) (= A^0 A^post)) (= NBuffers^0 NBuffers^post)) (= NLocBuffer^0 NLocBuffer^post)) (= R^0 R^post)) (= a1010^0 a1010^post)) (= a1414^0 a1414^post)) (= a66^0 a66^post)) (= b1111^0 b1111^post)) (= b77^0 b77^post)) (= bufHdr___01515^0 bufHdr___01515^post)) (= bufHdr_cntxDirty^0 bufHdr_cntxDirty^post)) (= bufHdr_flags^0 bufHdr_flags^post)) (= bufHdr_tag_blockNum^0 bufHdr_tag_blockNum^post)) (= bufHdr_tag_rnode^0 bufHdr_tag_rnode^post)) (= bufHdr_tag_rnode_relNode^0 bufHdr_tag_rnode_relNode^post)) (= firstDelBlock^0 firstDelBlock^post)) (= i^0 i^post)) (= istemp^0 istemp^post)) (= ret_RelFileNodeEquals1313^0 ret_RelFileNodeEquals1313^post)) (= ret_RelFileNodeEquals99^0 ret_RelFileNodeEquals99^post)) (= rnode^0 rnode^post)) (= tmp1^0 tmp1^post)) (= tmp1212^0 tmp1212^post)) (= tmp88^0 tmp88^post)) (= tmp___03^0 tmp___03^post)) (= tmp___14^0 tmp___14^post)))
    (cfg_trans2 pc^0 l5 pc^post l12 (and (and (and (and (and (and (and (and (and (and (and (and (and (and (and (and (and (and (and (and (and (and (and (and (and (= A^0 A^post) (= NBuffers^0 NBuffers^post)) (= NLocBuffer^0 NLocBuffer^post)) (= R^0 R^post)) (= a1010^0 a1010^post)) (= a1414^0 a1414^post)) (= a66^0 a66^post)) (= b1111^0 b1111^post)) (= b77^0 b77^post)) (= bufHdr___01515^0 bufHdr___01515^post)) (= bufHdr_cntxDirty^0 bufHdr_cntxDirty^post)) (= bufHdr_flags^0 bufHdr_flags^post)) (= bufHdr_tag_blockNum^0 bufHdr_tag_blockNum^post)) (= bufHdr_tag_rnode^0 bufHdr_tag_rnode^post)) (= bufHdr_tag_rnode_relNode^0 bufHdr_tag_rnode_relNode^post)) (= firstDelBlock^0 firstDelBlock^post)) (= i^0 i^post)) (= istemp^0 istemp^post)) (= ret_RelFileNodeEquals1313^0 ret_RelFileNodeEquals1313^post)) (= ret_RelFileNodeEquals99^0 ret_RelFileNodeEquals99^post)) (= rnode^0 rnode^post)) (= tmp1^0 tmp1^post)) (= tmp1212^0 tmp1212^post)) (= tmp88^0 tmp88^post)) (= tmp___03^0 tmp___03^post)) (= tmp___14^0 tmp___14^post)))
    (cfg_trans2 pc^0 l12 pc^post l13 (exists ( (R^1 Int) ) (and (and (and (and (and (and (and (and (and (and (and (and (and (and (and (and (and (and (and (and (and (and (and (and (and (and (and (<= (+ 1 NBuffers^0) (+ 0 i^0)) (= R^1 1)) (= R^post 0)) (= A^0 A^post)) (= NBuffers^0 NBuffers^post)) (= NLocBuffer^0 NLocBuffer^post)) (= a1010^0 a1010^post)) (= a1414^0 a1414^post)) (= a66^0 a66^post)) (= b1111^0 b1111^post)) (= b77^0 b77^post)) (= bufHdr___01515^0 bufHdr___01515^post)) (= bufHdr_cntxDirty^0 bufHdr_cntxDirty^post)) (= bufHdr_flags^0 bufHdr_flags^post)) (= bufHdr_tag_blockNum^0 bufHdr_tag_blockNum^post)) (= bufHdr_tag_rnode^0 bufHdr_tag_rnode^post)) (= bufHdr_tag_rnode_relNode^0 bufHdr_tag_rnode_relNode^post)) (= firstDelBlock^0 firstDelBlock^post)) (= i^0 i^post)) (= istemp^0 istemp^post)) (= ret_RelFileNodeEquals1313^0 ret_RelFileNodeEquals1313^post)) (= ret_RelFileNodeEquals99^0 ret_RelFileNodeEquals99^post)) (= rnode^0 rnode^post)) (= tmp1^0 tmp1^post)) (= tmp1212^0 tmp1212^post)) (= tmp88^0 tmp88^post)) (= tmp___03^0 tmp___03^post)) (= tmp___14^0 tmp___14^post))))
    (cfg_trans2 pc^0 l12 pc^post l9 (and (and (and (and (and (and (and (and (and (and (and (and (and (and (and (and (and (and (and (and (and (and (and (and (and (and (<= (+ 0 i^0) (+ 0 NBuffers^0)) (= tmp___03^post tmp___03^post)) (= A^0 A^post)) (= NBuffers^0 NBuffers^post)) (= NLocBuffer^0 NLocBuffer^post)) (= R^0 R^post)) (= a1010^0 a1010^post)) (= a1414^0 a1414^post)) (= a66^0 a66^post)) (= b1111^0 b1111^post)) (= b77^0 b77^post)) (= bufHdr___01515^0 bufHdr___01515^post)) (= bufHdr_cntxDirty^0 bufHdr_cntxDirty^post)) (= bufHdr_flags^0 bufHdr_flags^post)) (= bufHdr_tag_blockNum^0 bufHdr_tag_blockNum^post)) (= bufHdr_tag_rnode^0 bufHdr_tag_rnode^post)) (= bufHdr_tag_rnode_relNode^0 bufHdr_tag_rnode_relNode^post)) (= firstDelBlock^0 firstDelBlock^post)) (= i^0 i^post)) (= istemp^0 istemp^post)) (= ret_RelFileNodeEquals1313^0 ret_RelFileNodeEquals1313^post)) (= ret_RelFileNodeEquals99^0 ret_RelFileNodeEquals99^post)) (= rnode^0 rnode^post)) (= tmp1^0 tmp1^post)) (= tmp1212^0 tmp1212^post)) (= tmp88^0 tmp88^post)) (= tmp___14^0 tmp___14^post)))
    (cfg_trans2 pc^0 l14 pc^post l15 (and (and (and (and (and (and (and (and (and (and (and (and (and (and (and (and (and (and (and (and (and (and (and (and (and (= A^0 A^post) (= NBuffers^0 NBuffers^post)) (= NLocBuffer^0 NLocBuffer^post)) (= R^0 R^post)) (= a1010^0 a1010^post)) (= a1414^0 a1414^post)) (= a66^0 a66^post)) (= b1111^0 b1111^post)) (= b77^0 b77^post)) (= bufHdr___01515^0 bufHdr___01515^post)) (= bufHdr_cntxDirty^0 bufHdr_cntxDirty^post)) (= bufHdr_flags^0 bufHdr_flags^post)) (= bufHdr_tag_blockNum^0 bufHdr_tag_blockNum^post)) (= bufHdr_tag_rnode^0 bufHdr_tag_rnode^post)) (= bufHdr_tag_rnode_relNode^0 bufHdr_tag_rnode_relNode^post)) (= firstDelBlock^0 firstDelBlock^post)) (= i^0 i^post)) (= istemp^0 istemp^post)) (= ret_RelFileNodeEquals1313^0 ret_RelFileNodeEquals1313^post)) (= ret_RelFileNodeEquals99^0 ret_RelFileNodeEquals99^post)) (= rnode^0 rnode^post)) (= tmp1^0 tmp1^post)) (= tmp1212^0 tmp1212^post)) (= tmp88^0 tmp88^post)) (= tmp___03^0 tmp___03^post)) (= tmp___14^0 tmp___14^post)))
    (cfg_trans2 pc^0 l15 pc^post l5 (exists ( (A^1 Int) ) (and (and (and (and (and (and (and (and (and (and (and (and (and (and (and (and (and (and (and (and (and (and (and (and (and (and (= A^1 1) (= A^post 0)) (= i^post 1)) (= NBuffers^0 NBuffers^post)) (= NLocBuffer^0 NLocBuffer^post)) (= R^0 R^post)) (= a1010^0 a1010^post)) (= a1414^0 a1414^post)) (= a66^0 a66^post)) (= b1111^0 b1111^post)) (= b77^0 b77^post)) (= bufHdr___01515^0 bufHdr___01515^post)) (= bufHdr_cntxDirty^0 bufHdr_cntxDirty^post)) (= bufHdr_flags^0 bufHdr_flags^post)) (= bufHdr_tag_blockNum^0 bufHdr_tag_blockNum^post)) (= bufHdr_tag_rnode^0 bufHdr_tag_rnode^post)) (= bufHdr_tag_rnode_relNode^0 bufHdr_tag_rnode_relNode^post)) (= firstDelBlock^0 firstDelBlock^post)) (= istemp^0 istemp^post)) (= ret_RelFileNodeEquals1313^0 ret_RelFileNodeEquals1313^post)) (= ret_RelFileNodeEquals99^0 ret_RelFileNodeEquals99^post)) (= rnode^0 rnode^post)) (= tmp1^0 tmp1^post)) (= tmp1212^0 tmp1212^post)) (= tmp88^0 tmp88^post)) (= tmp___03^0 tmp___03^post)) (= tmp___14^0 tmp___14^post))))
    (cfg_trans2 pc^0 l9 pc^post l11 (and (and (and (and (and (and (and (and (and (and (and (and (and (and (and (and (and (and (and (and (and (and (and (and (and (= a1010^post (+ 0 bufHdr_tag_rnode^0)) (= b1111^post (+ 0 rnode^0))) (= tmp1212^post tmp1212^post)) (= ret_RelFileNodeEquals1313^post (+ 0 tmp1212^post))) (= tmp___14^post (+ 0 ret_RelFileNodeEquals1313^post))) (= A^0 A^post)) (= NBuffers^0 NBuffers^post)) (= NLocBuffer^0 NLocBuffer^post)) (= R^0 R^post)) (= a1414^0 a1414^post)) (= a66^0 a66^post)) (= b77^0 b77^post)) (= bufHdr___01515^0 bufHdr___01515^post)) (= bufHdr_cntxDirty^0 bufHdr_cntxDirty^post)) (= bufHdr_flags^0 bufHdr_flags^post)) (= bufHdr_tag_blockNum^0 bufHdr_tag_blockNum^post)) (= bufHdr_tag_rnode^0 bufHdr_tag_rnode^post)) (= bufHdr_tag_rnode_relNode^0 bufHdr_tag_rnode_relNode^post)) (= firstDelBlock^0 firstDelBlock^post)) (= i^0 i^post)) (= istemp^0 istemp^post)) (= ret_RelFileNodeEquals99^0 ret_RelFileNodeEquals99^post)) (= rnode^0 rnode^post)) (= tmp1^0 tmp1^post)) (= tmp88^0 tmp88^post)) (= tmp___03^0 tmp___03^post)))
    (cfg_trans2 pc^0 l16 pc^post l2 (and (and (and (and (and (and (and (and (and (and (and (and (and (and (and (and (and (and (and (and (and (and (and (and (and (= i^post (+ 1 i^0)) (= A^0 A^post)) (= NBuffers^0 NBuffers^post)) (= NLocBuffer^0 NLocBuffer^post)) (= R^0 R^post)) (= a1010^0 a1010^post)) (= a1414^0 a1414^post)) (= a66^0 a66^post)) (= b1111^0 b1111^post)) (= b77^0 b77^post)) (= bufHdr___01515^0 bufHdr___01515^post)) (= bufHdr_cntxDirty^0 bufHdr_cntxDirty^post)) (= bufHdr_flags^0 bufHdr_flags^post)) (= bufHdr_tag_blockNum^0 bufHdr_tag_blockNum^post)) (= bufHdr_tag_rnode^0 bufHdr_tag_rnode^post)) (= bufHdr_tag_rnode_relNode^0 bufHdr_tag_rnode_relNode^post)) (= firstDelBlock^0 firstDelBlock^post)) (= istemp^0 istemp^post)) (= ret_RelFileNodeEquals1313^0 ret_RelFileNodeEquals1313^post)) (= ret_RelFileNodeEquals99^0 ret_RelFileNodeEquals99^post)) (= rnode^0 rnode^post)) (= tmp1^0 tmp1^post)) (= tmp1212^0 tmp1212^post)) (= tmp88^0 tmp88^post)) (= tmp___03^0 tmp___03^post)) (= tmp___14^0 tmp___14^post)))
    (cfg_trans2 pc^0 l17 pc^post l16 (and (and (and (and (and (and (and (and (and (and (and (and (and (and (and (and (and (and (and (and (and (and (and (and (and (and (<= (+ 1 bufHdr_tag_blockNum^0) (+ 0 firstDelBlock^0)) (= A^0 A^post)) (= NBuffers^0 NBuffers^post)) (= NLocBuffer^0 NLocBuffer^post)) (= R^0 R^post)) (= a1010^0 a1010^post)) (= a1414^0 a1414^post)) (= a66^0 a66^post)) (= b1111^0 b1111^post)) (= b77^0 b77^post)) (= bufHdr___01515^0 bufHdr___01515^post)) (= bufHdr_cntxDirty^0 bufHdr_cntxDirty^post)) (= bufHdr_flags^0 bufHdr_flags^post)) (= bufHdr_tag_blockNum^0 bufHdr_tag_blockNum^post)) (= bufHdr_tag_rnode^0 bufHdr_tag_rnode^post)) (= bufHdr_tag_rnode_relNode^0 bufHdr_tag_rnode_relNode^post)) (= firstDelBlock^0 firstDelBlock^post)) (= i^0 i^post)) (= istemp^0 istemp^post)) (= ret_RelFileNodeEquals1313^0 ret_RelFileNodeEquals1313^post)) (= ret_RelFileNodeEquals99^0 ret_RelFileNodeEquals99^post)) (= rnode^0 rnode^post)) (= tmp1^0 tmp1^post)) (= tmp1212^0 tmp1212^post)) (= tmp88^0 tmp88^post)) (= tmp___03^0 tmp___03^post)) (= tmp___14^0 tmp___14^post)))
    (cfg_trans2 pc^0 l17 pc^post l16 (and (and (and (and (and (and (and (and (and (and (and (and (and (and (and (and (and (and (and (and (and (and (and (and (and (and (<= (+ 0 firstDelBlock^0) (+ 0 bufHdr_tag_blockNum^0)) (= bufHdr_flags^post bufHdr_flags^post)) (= bufHdr_cntxDirty^post 0)) (= bufHdr_tag_rnode_relNode^post 1)) (= A^0 A^post)) (= NBuffers^0 NBuffers^post)) (= NLocBuffer^0 NLocBuffer^post)) (= R^0 R^post)) (= a1010^0 a1010^post)) (= a1414^0 a1414^post)) (= a66^0 a66^post)) (= b1111^0 b1111^post)) (= b77^0 b77^post)) (= bufHdr___01515^0 bufHdr___01515^post)) (= bufHdr_tag_blockNum^0 bufHdr_tag_blockNum^post)) (= bufHdr_tag_rnode^0 bufHdr_tag_rnode^post)) (= firstDelBlock^0 firstDelBlock^post)) (= i^0 i^post)) (= istemp^0 istemp^post)) (= ret_RelFileNodeEquals1313^0 ret_RelFileNodeEquals1313^post)) (= ret_RelFileNodeEquals99^0 ret_RelFileNodeEquals99^post)) (= rnode^0 rnode^post)) (= tmp1^0 tmp1^post)) (= tmp1212^0 tmp1212^post)) (= tmp88^0 tmp88^post)) (= tmp___03^0 tmp___03^post)) (= tmp___14^0 tmp___14^post)))
    (cfg_trans2 pc^0 l18 pc^post l16 (and (and (and (and (and (and (and (and (and (and (and (and (and (and (and (and (and (and (and (and (and (and (and (and (and (and (and (<= (+ 0 tmp1^0) 0) (<= 0 (+ 0 tmp1^0))) (= A^0 A^post)) (= NBuffers^0 NBuffers^post)) (= NLocBuffer^0 NLocBuffer^post)) (= R^0 R^post)) (= a1010^0 a1010^post)) (= a1414^0 a1414^post)) (= a66^0 a66^post)) (= b1111^0 b1111^post)) (= b77^0 b77^post)) (= bufHdr___01515^0 bufHdr___01515^post)) (= bufHdr_cntxDirty^0 bufHdr_cntxDirty^post)) (= bufHdr_flags^0 bufHdr_flags^post)) (= bufHdr_tag_blockNum^0 bufHdr_tag_blockNum^post)) (= bufHdr_tag_rnode^0 bufHdr_tag_rnode^post)) (= bufHdr_tag_rnode_relNode^0 bufHdr_tag_rnode_relNode^post)) (= firstDelBlock^0 firstDelBlock^post)) (= i^0 i^post)) (= istemp^0 istemp^post)) (= ret_RelFileNodeEquals1313^0 ret_RelFileNodeEquals1313^post)) (= ret_RelFileNodeEquals99^0 ret_RelFileNodeEquals99^post)) (= rnode^0 rnode^post)) (= tmp1^0 tmp1^post)) (= tmp1212^0 tmp1212^post)) (= tmp88^0 tmp88^post)) (= tmp___03^0 tmp___03^post)) (= tmp___14^0 tmp___14^post)))
    (cfg_trans2 pc^0 l18 pc^post l17 (and (and (and (and (and (and (and (and (and (and (and (and (and (and (and (and (and (and (and (and (and (and (and (and (and (and (<= 1 (+ 0 tmp1^0)) (= A^0 A^post)) (= NBuffers^0 NBuffers^post)) (= NLocBuffer^0 NLocBuffer^post)) (= R^0 R^post)) (= a1010^0 a1010^post)) (= a1414^0 a1414^post)) (= a66^0 a66^post)) (= b1111^0 b1111^post)) (= b77^0 b77^post)) (= bufHdr___01515^0 bufHdr___01515^post)) (= bufHdr_cntxDirty^0 bufHdr_cntxDirty^post)) (= bufHdr_flags^0 bufHdr_flags^post)) (= bufHdr_tag_blockNum^0 bufHdr_tag_blockNum^post)) (= bufHdr_tag_rnode^0 bufHdr_tag_rnode^post)) (= bufHdr_tag_rnode_relNode^0 bufHdr_tag_rnode_relNode^post)) (= firstDelBlock^0 firstDelBlock^post)) (= i^0 i^post)) (= istemp^0 istemp^post)) (= ret_RelFileNodeEquals1313^0 ret_RelFileNodeEquals1313^post)) (= ret_RelFileNodeEquals99^0 ret_RelFileNodeEquals99^post)) (= rnode^0 rnode^post)) (= tmp1^0 tmp1^post)) (= tmp1212^0 tmp1212^post)) (= tmp88^0 tmp88^post)) (= tmp___03^0 tmp___03^post)) (= tmp___14^0 tmp___14^post)))
    (cfg_trans2 pc^0 l18 pc^post l17 (and (and (and (and (and (and (and (and (and (and (and (and (and (and (and (and (and (and (and (and (and (and (and (and (and (and (<= (+ 1 tmp1^0) 0) (= A^0 A^post)) (= NBuffers^0 NBuffers^post)) (= NLocBuffer^0 NLocBuffer^post)) (= R^0 R^post)) (= a1010^0 a1010^post)) (= a1414^0 a1414^post)) (= a66^0 a66^post)) (= b1111^0 b1111^post)) (= b77^0 b77^post)) (= bufHdr___01515^0 bufHdr___01515^post)) (= bufHdr_cntxDirty^0 bufHdr_cntxDirty^post)) (= bufHdr_flags^0 bufHdr_flags^post)) (= bufHdr_tag_blockNum^0 bufHdr_tag_blockNum^post)) (= bufHdr_tag_rnode^0 bufHdr_tag_rnode^post)) (= bufHdr_tag_rnode_relNode^0 bufHdr_tag_rnode_relNode^post)) (= firstDelBlock^0 firstDelBlock^post)) (= i^0 i^post)) (= istemp^0 istemp^post)) (= ret_RelFileNodeEquals1313^0 ret_RelFileNodeEquals1313^post)) (= ret_RelFileNodeEquals99^0 ret_RelFileNodeEquals99^post)) (= rnode^0 rnode^post)) (= tmp1^0 tmp1^post)) (= tmp1212^0 tmp1212^post)) (= tmp88^0 tmp88^post)) (= tmp___03^0 tmp___03^post)) (= tmp___14^0 tmp___14^post)))
    (cfg_trans2 pc^0 l13 pc^post l19 (and (and (and (and (and (and (and (and (and (and (and (and (and (and (and (and (and (and (and (and (and (and (and (and (and (= A^0 A^post) (= NBuffers^0 NBuffers^post)) (= NLocBuffer^0 NLocBuffer^post)) (= R^0 R^post)) (= a1010^0 a1010^post)) (= a1414^0 a1414^post)) (= a66^0 a66^post)) (= b1111^0 b1111^post)) (= b77^0 b77^post)) (= bufHdr___01515^0 bufHdr___01515^post)) (= bufHdr_cntxDirty^0 bufHdr_cntxDirty^post)) (= bufHdr_flags^0 bufHdr_flags^post)) (= bufHdr_tag_blockNum^0 bufHdr_tag_blockNum^post)) (= bufHdr_tag_rnode^0 bufHdr_tag_rnode^post)) (= bufHdr_tag_rnode_relNode^0 bufHdr_tag_rnode_relNode^post)) (= firstDelBlock^0 firstDelBlock^post)) (= i^0 i^post)) (= istemp^0 istemp^post)) (= ret_RelFileNodeEquals1313^0 ret_RelFileNodeEquals1313^post)) (= ret_RelFileNodeEquals99^0 ret_RelFileNodeEquals99^post)) (= rnode^0 rnode^post)) (= tmp1^0 tmp1^post)) (= tmp1212^0 tmp1212^post)) (= tmp88^0 tmp88^post)) (= tmp___03^0 tmp___03^post)) (= tmp___14^0 tmp___14^post)))
    (cfg_trans2 pc^0 l19 pc^post l13 (and (and (and (and (and (and (and (and (and (and (and (and (and (and (and (and (and (and (and (and (and (and (and (and (and (= A^0 A^post) (= NBuffers^0 NBuffers^post)) (= NLocBuffer^0 NLocBuffer^post)) (= R^0 R^post)) (= a1010^0 a1010^post)) (= a1414^0 a1414^post)) (= a66^0 a66^post)) (= b1111^0 b1111^post)) (= b77^0 b77^post)) (= bufHdr___01515^0 bufHdr___01515^post)) (= bufHdr_cntxDirty^0 bufHdr_cntxDirty^post)) (= bufHdr_flags^0 bufHdr_flags^post)) (= bufHdr_tag_blockNum^0 bufHdr_tag_blockNum^post)) (= bufHdr_tag_rnode^0 bufHdr_tag_rnode^post)) (= bufHdr_tag_rnode_relNode^0 bufHdr_tag_rnode_relNode^post)) (= firstDelBlock^0 firstDelBlock^post)) (= i^0 i^post)) (= istemp^0 istemp^post)) (= ret_RelFileNodeEquals1313^0 ret_RelFileNodeEquals1313^post)) (= ret_RelFileNodeEquals99^0 ret_RelFileNodeEquals99^post)) (= rnode^0 rnode^post)) (= tmp1^0 tmp1^post)) (= tmp1212^0 tmp1212^post)) (= tmp88^0 tmp88^post)) (= tmp___03^0 tmp___03^post)) (= tmp___14^0 tmp___14^post)))
    (cfg_trans2 pc^0 l3 pc^post l6 (and (and (and (and (and (and (and (and (and (and (and (and (and (and (and (and (and (and (and (and (and (and (and (and (and (and (<= (+ 0 NLocBuffer^0) (+ 0 i^0)) (= A^0 A^post)) (= NBuffers^0 NBuffers^post)) (= NLocBuffer^0 NLocBuffer^post)) (= R^0 R^post)) (= a1010^0 a1010^post)) (= a1414^0 a1414^post)) (= a66^0 a66^post)) (= b1111^0 b1111^post)) (= b77^0 b77^post)) (= bufHdr___01515^0 bufHdr___01515^post)) (= bufHdr_cntxDirty^0 bufHdr_cntxDirty^post)) (= bufHdr_flags^0 bufHdr_flags^post)) (= bufHdr_tag_blockNum^0 bufHdr_tag_blockNum^post)) (= bufHdr_tag_rnode^0 bufHdr_tag_rnode^post)) (= bufHdr_tag_rnode_relNode^0 bufHdr_tag_rnode_relNode^post)) (= firstDelBlock^0 firstDelBlock^post)) (= i^0 i^post)) (= istemp^0 istemp^post)) (= ret_RelFileNodeEquals1313^0 ret_RelFileNodeEquals1313^post)) (= ret_RelFileNodeEquals99^0 ret_RelFileNodeEquals99^post)) (= rnode^0 rnode^post)) (= tmp1^0 tmp1^post)) (= tmp1212^0 tmp1212^post)) (= tmp88^0 tmp88^post)) (= tmp___03^0 tmp___03^post)) (= tmp___14^0 tmp___14^post)))
    (cfg_trans2 pc^0 l3 pc^post l18 (and (and (and (and (and (and (and (and (and (and (and (and (and (and (and (and (and (and (and (and (and (and (and (and (and (and (<= (+ 1 i^0) (+ 0 NLocBuffer^0)) (= a66^post (+ 0 bufHdr_tag_rnode^0))) (= b77^post (+ 0 rnode^0))) (= tmp88^post tmp88^post)) (= ret_RelFileNodeEquals99^post (+ 0 tmp88^post))) (= tmp1^post (+ 0 ret_RelFileNodeEquals99^post))) (= A^0 A^post)) (= NBuffers^0 NBuffers^post)) (= NLocBuffer^0 NLocBuffer^post)) (= R^0 R^post)) (= a1010^0 a1010^post)) (= a1414^0 a1414^post)) (= b1111^0 b1111^post)) (= bufHdr___01515^0 bufHdr___01515^post)) (= bufHdr_cntxDirty^0 bufHdr_cntxDirty^post)) (= bufHdr_flags^0 bufHdr_flags^post)) (= bufHdr_tag_blockNum^0 bufHdr_tag_blockNum^post)) (= bufHdr_tag_rnode^0 bufHdr_tag_rnode^post)) (= bufHdr_tag_rnode_relNode^0 bufHdr_tag_rnode_relNode^post)) (= firstDelBlock^0 firstDelBlock^post)) (= i^0 i^post)) (= istemp^0 istemp^post)) (= ret_RelFileNodeEquals1313^0 ret_RelFileNodeEquals1313^post)) (= rnode^0 rnode^post)) (= tmp1212^0 tmp1212^post)) (= tmp___03^0 tmp___03^post)) (= tmp___14^0 tmp___14^post)))
    (cfg_trans2 pc^0 l20 pc^post l15 (and (and (and (and (and (and (and (and (and (and (and (and (and (and (and (and (and (and (and (and (and (and (and (and (and (and (<= 2 (+ 0 istemp^0)) (= A^0 A^post)) (= NBuffers^0 NBuffers^post)) (= NLocBuffer^0 NLocBuffer^post)) (= R^0 R^post)) (= a1010^0 a1010^post)) (= a1414^0 a1414^post)) (= a66^0 a66^post)) (= b1111^0 b1111^post)) (= b77^0 b77^post)) (= bufHdr___01515^0 bufHdr___01515^post)) (= bufHdr_cntxDirty^0 bufHdr_cntxDirty^post)) (= bufHdr_flags^0 bufHdr_flags^post)) (= bufHdr_tag_blockNum^0 bufHdr_tag_blockNum^post)) (= bufHdr_tag_rnode^0 bufHdr_tag_rnode^post)) (= bufHdr_tag_rnode_relNode^0 bufHdr_tag_rnode_relNode^post)) (= firstDelBlock^0 firstDelBlock^post)) (= i^0 i^post)) (= istemp^0 istemp^post)) (= ret_RelFileNodeEquals1313^0 ret_RelFileNodeEquals1313^post)) (= ret_RelFileNodeEquals99^0 ret_RelFileNodeEquals99^post)) (= rnode^0 rnode^post)) (= tmp1^0 tmp1^post)) (= tmp1212^0 tmp1212^post)) (= tmp88^0 tmp88^post)) (= tmp___03^0 tmp___03^post)) (= tmp___14^0 tmp___14^post)))
    (cfg_trans2 pc^0 l20 pc^post l15 (and (and (and (and (and (and (and (and (and (and (and (and (and (and (and (and (and (and (and (and (and (and (and (and (and (and (<= (+ 1 istemp^0) 1) (= A^0 A^post)) (= NBuffers^0 NBuffers^post)) (= NLocBuffer^0 NLocBuffer^post)) (= R^0 R^post)) (= a1010^0 a1010^post)) (= a1414^0 a1414^post)) (= a66^0 a66^post)) (= b1111^0 b1111^post)) (= b77^0 b77^post)) (= bufHdr___01515^0 bufHdr___01515^post)) (= bufHdr_cntxDirty^0 bufHdr_cntxDirty^post)) (= bufHdr_flags^0 bufHdr_flags^post)) (= bufHdr_tag_blockNum^0 bufHdr_tag_blockNum^post)) (= bufHdr_tag_rnode^0 bufHdr_tag_rnode^post)) (= bufHdr_tag_rnode_relNode^0 bufHdr_tag_rnode_relNode^post)) (= firstDelBlock^0 firstDelBlock^post)) (= i^0 i^post)) (= istemp^0 istemp^post)) (= ret_RelFileNodeEquals1313^0 ret_RelFileNodeEquals1313^post)) (= ret_RelFileNodeEquals99^0 ret_RelFileNodeEquals99^post)) (= rnode^0 rnode^post)) (= tmp1^0 tmp1^post)) (= tmp1212^0 tmp1212^post)) (= tmp88^0 tmp88^post)) (= tmp___03^0 tmp___03^post)) (= tmp___14^0 tmp___14^post)))
    (cfg_trans2 pc^0 l20 pc^post l2 (and (and (and (and (and (and (and (and (and (and (and (and (and (and (and (and (and (and (and (and (and (and (and (and (and (and (and (<= (+ 0 istemp^0) 1) (<= 1 (+ 0 istemp^0))) (= i^post 0)) (= A^0 A^post)) (= NBuffers^0 NBuffers^post)) (= NLocBuffer^0 NLocBuffer^post)) (= R^0 R^post)) (= a1010^0 a1010^post)) (= a1414^0 a1414^post)) (= a66^0 a66^post)) (= b1111^0 b1111^post)) (= b77^0 b77^post)) (= bufHdr___01515^0 bufHdr___01515^post)) (= bufHdr_cntxDirty^0 bufHdr_cntxDirty^post)) (= bufHdr_flags^0 bufHdr_flags^post)) (= bufHdr_tag_blockNum^0 bufHdr_tag_blockNum^post)) (= bufHdr_tag_rnode^0 bufHdr_tag_rnode^post)) (= bufHdr_tag_rnode_relNode^0 bufHdr_tag_rnode_relNode^post)) (= firstDelBlock^0 firstDelBlock^post)) (= istemp^0 istemp^post)) (= ret_RelFileNodeEquals1313^0 ret_RelFileNodeEquals1313^post)) (= ret_RelFileNodeEquals99^0 ret_RelFileNodeEquals99^post)) (= rnode^0 rnode^post)) (= tmp1^0 tmp1^post)) (= tmp1212^0 tmp1212^post)) (= tmp88^0 tmp88^post)) (= tmp___03^0 tmp___03^post)) (= tmp___14^0 tmp___14^post)))
    (cfg_trans2 pc^0 l21 pc^post l20 (and (and (and (and (and (and (and (and (and (and (and (and (and (and (and (and (and (and (and (and (and (and (and (and (and (= istemp^post istemp^post) (= R^post 0)) (= A^post (+ 0 R^post))) (= NLocBuffer^post NLocBuffer^post)) (= NBuffers^post NBuffers^post)) (= a1010^0 a1010^post)) (= a1414^0 a1414^post)) (= a66^0 a66^post)) (= b1111^0 b1111^post)) (= b77^0 b77^post)) (= bufHdr___01515^0 bufHdr___01515^post)) (= bufHdr_cntxDirty^0 bufHdr_cntxDirty^post)) (= bufHdr_flags^0 bufHdr_flags^post)) (= bufHdr_tag_blockNum^0 bufHdr_tag_blockNum^post)) (= bufHdr_tag_rnode^0 bufHdr_tag_rnode^post)) (= bufHdr_tag_rnode_relNode^0 bufHdr_tag_rnode_relNode^post)) (= firstDelBlock^0 firstDelBlock^post)) (= i^0 i^post)) (= ret_RelFileNodeEquals1313^0 ret_RelFileNodeEquals1313^post)) (= ret_RelFileNodeEquals99^0 ret_RelFileNodeEquals99^post)) (= rnode^0 rnode^post)) (= tmp1^0 tmp1^post)) (= tmp1212^0 tmp1212^post)) (= tmp88^0 tmp88^post)) (= tmp___03^0 tmp___03^post)) (= tmp___14^0 tmp___14^post)))
    (cfg_trans2 pc^0 l22 pc^post l21 (and (and (and (and (and (and (and (and (and (and (and (and (and (and (and (and (and (and (and (and (and (and (and (and (and (= A^0 A^post) (= NBuffers^0 NBuffers^post)) (= NLocBuffer^0 NLocBuffer^post)) (= R^0 R^post)) (= a1010^0 a1010^post)) (= a1414^0 a1414^post)) (= a66^0 a66^post)) (= b1111^0 b1111^post)) (= b77^0 b77^post)) (= bufHdr___01515^0 bufHdr___01515^post)) (= bufHdr_cntxDirty^0 bufHdr_cntxDirty^post)) (= bufHdr_flags^0 bufHdr_flags^post)) (= bufHdr_tag_blockNum^0 bufHdr_tag_blockNum^post)) (= bufHdr_tag_rnode^0 bufHdr_tag_rnode^post)) (= bufHdr_tag_rnode_relNode^0 bufHdr_tag_rnode_relNode^post)) (= firstDelBlock^0 firstDelBlock^post)) (= i^0 i^post)) (= istemp^0 istemp^post)) (= ret_RelFileNodeEquals1313^0 ret_RelFileNodeEquals1313^post)) (= ret_RelFileNodeEquals99^0 ret_RelFileNodeEquals99^post)) (= rnode^0 rnode^post)) (= tmp1^0 tmp1^post)) (= tmp1212^0 tmp1212^post)) (= tmp88^0 tmp88^post)) (= tmp___03^0 tmp___03^post)) (= tmp___14^0 tmp___14^post)))
  )
)
